NAME          
ROWS
 N  OBJ
 L  c1
 L  c2
COLUMNS
    MARKER    'MARKER'                 'INTORG'
    x[1]      c1        462
    x[1]      c2        191
    x[1]      OBJ       -215
    x[2]      c1        868
    x[2]      c2        235
    x[2]      OBJ       -854
    x[3]      c1        876
    x[3]      c2        144
    x[3]      OBJ       -777
    x[4]      c1        370
    x[4]      c2        833
    x[4]      OBJ       -640
    x[5]      c1        395
    x[5]      c2        145
    x[5]      OBJ       -390
    x[6]      c1        468
    x[6]      c2        925
    x[6]      OBJ       -802
    x[7]      c1        971
    x[7]      c2        852
    x[7]      OBJ       -707
    x[8]      c1        704
    x[8]      c2        680
    x[8]      OBJ       -366
    x[9]      c1        527
    x[9]      c2        340
    x[9]      OBJ       -302
    x[10]     c1        167
    x[10]     c2        63
    x[10]     OBJ       -871
    x[11]     c1        532
    x[11]     c2        652
    x[11]     OBJ       -697
    x[12]     c1        812
    x[12]     c2        737
    x[12]     OBJ       -573
    x[13]     c1        179
    x[13]     c2        281
    x[13]     OBJ       -503
    x[14]     c1        992
    x[14]     c2        537
    x[14]     OBJ       -874
    x[15]     c1        173
    x[15]     c2        226
    x[15]     OBJ       -236
    x[16]     c1        913
    x[16]     c2        537
    x[16]     OBJ       -317
    x[17]     c1        227
    x[17]     c2        156
    x[17]     OBJ       -811
    x[18]     c1        602
    x[18]     c2        288
    x[18]     OBJ       -666
    x[19]     c1        903
    x[19]     c2        86
    x[19]     OBJ       -637
    x[20]     c1        593
    x[20]     c2        115
    x[20]     OBJ       -132
    x[21]     c1        368
    x[21]     c2        762
    x[21]     OBJ       -55
    x[22]     c1        188
    x[22]     c2        397
    x[22]     OBJ       -633
    x[23]     c1        593
    x[23]     c2        681
    x[23]     OBJ       -696
    x[24]     c1        560
    x[24]     c2        508
    x[24]     OBJ       -301
    x[25]     c1        678
    x[25]     c2        149
    x[25]     OBJ       -528
RHS
    rhs       c1        7060
    rhs       c2        5260
RANGES
BOUNDS
 LO bounds    x[1]      0
 PL bounds    x[1]
 LO bounds    x[2]      0
 PL bounds    x[2]
 LO bounds    x[3]      0
 PL bounds    x[3]
 LO bounds    x[4]      0
 PL bounds    x[4]
 LO bounds    x[5]      0
 PL bounds    x[5]
 LO bounds    x[6]      0
 PL bounds    x[6]
 LO bounds    x[7]      0
 PL bounds    x[7]
 LO bounds    x[8]      0
 PL bounds    x[8]
 LO bounds    x[9]      0
 PL bounds    x[9]
 LO bounds    x[10]     0
 PL bounds    x[10]
 LO bounds    x[11]     0
 PL bounds    x[11]
 LO bounds    x[12]     0
 PL bounds    x[12]
 LO bounds    x[13]     0
 PL bounds    x[13]
 LO bounds    x[14]     0
 PL bounds    x[14]
 LO bounds    x[15]     0
 PL bounds    x[15]
 LO bounds    x[16]     0
 PL bounds    x[16]
 LO bounds    x[17]     0
 PL bounds    x[17]
 LO bounds    x[18]     0
 PL bounds    x[18]
 LO bounds    x[19]     0
 PL bounds    x[19]
 LO bounds    x[20]     0
 PL bounds    x[20]
 LO bounds    x[21]     0
 PL bounds    x[21]
 LO bounds    x[22]     0
 PL bounds    x[22]
 LO bounds    x[23]     0
 PL bounds    x[23]
 LO bounds    x[24]     0
 PL bounds    x[24]
 LO bounds    x[25]     0
 PL bounds    x[25]
ENDATA
